Copyright (C) 2013-2015, Filipe Brandao
Build (method = -2)
  #dp: 6905
  Step-3' Graph: 98 vertices and 2403 arcs (0.00s)
  Step-4' Graph: 98 vertices and 2403 arcs (0.00s)
  #V4/#V3 = 1.00
  #A4/#A3 = 1.00
Ready! (0.00s)
Optimize a model with 183 rows, 2404 columns and 7022 nonzeros
Found heuristic solution: objective 312
Presolve removed 39 rows and 43 columns
Presolve time: 0.01s
Presolved: 144 rows, 2361 columns, 6900 nonzeros
Variable types: 0 continuous, 2361 integer (61 binary)
Optimize a model with 144 rows, 2361 columns and 6900 nonzeros
Presolved: 144 rows, 2361 columns, 6900 nonzeros

Root barrier log...

Ordering time: 0.00s

Barrier statistics:
 AA' NZ     : 4.534e+03
 Factor NZ  : 6.733e+03 (roughly 1 MByte of memory)
 Factor Ops : 4.373e+05 (less than 1 second per iteration)
 Threads    : 1

                  Objective                Residual
Iter       Primal          Dual         Primal    Dual     Compl     Time
   0   7.28005431e+03 -3.30323287e+04  5.67e+04 7.18e-02  7.98e+01     0s
   1   2.29679310e+03 -1.33566997e+04  9.76e+03 6.66e-16  1.50e+01     0s
   2   6.10054224e+02 -5.55854251e+03  8.47e+02 1.17e-02  2.18e+00     0s
   3   4.21902877e+02 -1.26927713e+03  5.96e+01 1.14e-03  3.91e-01     0s
   4   3.71310081e+02 -5.05209830e+02  2.58e+01 5.04e-04  1.94e-01     0s
   5   3.24790808e+02 -1.12745761e+02  1.50e+01 8.31e-05  9.61e-02     0s
   6   2.59211737e+02  2.99726490e+01  7.13e+00 6.66e-16  4.99e-02     0s
   7   2.10223269e+02  8.09307257e+01  2.83e+00 3.33e-16  2.78e-02     0s
   8   1.89938307e+02  1.44414043e+02  1.23e+00 2.42e-16  9.79e-03     0s
   9   1.87909931e+02  1.50873823e+02  9.28e-01 1.69e-15  7.94e-03     0s
  10   1.83358830e+02  1.58662023e+02  5.35e-01 1.37e-15  5.27e-03     0s
  11   1.80139457e+02  1.68391906e+02  2.18e-01 1.38e-15  2.49e-03     0s
  12   1.78449169e+02  1.73560019e+02  8.37e-02 1.19e-15  1.03e-03     0s
  13   1.77787821e+02  1.75270152e+02  3.73e-02 1.16e-15  5.29e-04     0s
  14   1.77444235e+02  1.76203846e+02  1.38e-02 1.23e-15  2.60e-04     0s
  15   1.77340194e+02  1.76361797e+02  8.76e-03 1.65e-15  2.05e-04     0s
  16   1.77282316e+02  1.76568655e+02  6.38e-03 1.53e-15  1.50e-04     0s
  17   1.77263287e+02  1.76626365e+02  5.74e-03 1.65e-15  1.34e-04     0s
  18   1.77213857e+02  1.76856328e+02  4.09e-03 1.17e-15  7.51e-05     0s
  19   1.77149031e+02  1.76888836e+02  1.85e-03 1.56e-15  5.46e-05     0s
  20   1.77141028e+02  1.76971697e+02  1.60e-03 1.21e-15  3.55e-05     0s
  21   1.77099619e+02  1.77054324e+02  4.15e-04 1.12e-15  9.50e-06     0s
  22   1.77092181e+02  1.77061674e+02  2.76e-04 1.28e-15  6.40e-06     0s
  23   1.77078109e+02  1.77073937e+02  1.74e-05 1.16e-15  8.75e-07     0s
  24   1.77076928e+02  1.77076916e+02  7.13e-08 1.26e-15  2.49e-09     0s
  25   1.77076923e+02  1.77076923e+02  7.44e-12 1.04e-15  3.50e-15     0s

Barrier solved model in 25 iterations and 0.03 seconds
Optimal objective 1.77076923e+02


Root relaxation: objective 1.770769e+02, 235 iterations, 0.03 seconds

    Nodes    |    Current Node    |     Objective Bounds      |     Work
 Expl Unexpl |  Obj  Depth IntInf | Incumbent    BestBd   Gap | It/Node Time

     0     0  177.07692    0   52  312.00000  177.07692  43.2%     -    0s
H    0     0                     179.0000000  177.07692  1.07%     -    0s
H    0     0                     178.0000000  177.07692  0.52%     -    0s

Explored 0 nodes (558 simplex iterations) in 0.08 seconds
Thread count was 1 (of 4 available processors)

Optimal solution found (tolerance 0.00e+00)
Best objective 1.780000000000e+02, best bound 1.780000000000e+02, gap 0.0%
Preprocessing time: 0.01 seconds
Gurobi run time: 0.08 seconds
Total run time: 0.09 seconds
Objective: 178
Solution:
3 x [i=1, i=73]
4 x [i=2, i=72]
3 x [i=3, i=71]
4 x [i=4, i=70]
2 x [i=5, i=69]
6 x [i=6, i=68]
1 x [i=6, i=80, i=85]
1 x [i=7, i=67]
3 x [i=8, i=66]
2 x [i=9, i=65]
4 x [i=10, i=64]
3 x [i=10, i=80, i=81]
4 x [i=11, i=63]
3 x [i=12, i=62]
1 x [i=13, i=61]
3 x [i=14, i=60]
1 x [i=14, i=76, i=81]
3 x [i=14, i=78, i=79]
3 x [i=15, i=59]
2 x [i=15, i=73, i=83]
3 x [i=16, i=58]
2 x [i=16, i=74, i=81]
1 x [i=16, i=77, i=78]
2 x [i=17, i=57]
2 x [i=17, i=74, i=80]
2 x [i=17, i=77, i=77]
4 x [i=18, i=56]
2 x [i=18, i=75, i=78]
5 x [i=19, i=55]
4 x [i=20, i=54]
1 x [i=20, i=66, i=85]
1 x [i=20, i=76]
3 x [i=21, i=53]
1 x [i=21, i=67, i=83]
1 x [i=21, i=71, i=79]
1 x [i=21, i=76]
5 x [i=22, i=52]
2 x [i=22, i=65, i=84]
4 x [i=23, i=51]
2 x [i=23, i=73, i=75]
3 x [i=24, i=50]
3 x [i=25, i=49]
5 x [i=26, i=48]
5 x [i=27, i=47]
1 x [i=27, i=67, i=77]
6 x [i=28, i=46]
6 x [i=29, i=45]
5 x [i=30, i=44]
4 x [i=31, i=43]
3 x [i=32, i=42]
1 x [i=32, i=63, i=76]
1 x [i=32, i=65, i=74]
5 x [i=33, i=41]
1 x [i=33, i=63, i=75]
4 x [i=34, i=40]
2 x [i=35, i=39]
2 x [i=36, i=38]
1 x [i=37, i=37]
3 x [i=38, i=50, i=83]
1 x [i=38, i=55, i=78]
1 x [i=39, i=48, i=84]
3 x [i=39, i=61, i=71]
1 x [i=39, i=66, i=66]
1 x [i=40, i=40]
1 x [i=43, i=46, i=82]
1 x [i=43, i=48, i=83]
1 x [i=43, i=43, i=85]
1 x [i=45, i=45, i=81]
1 x [i=46, i=54, i=71]
1 x [i=50, i=81]
